************************************************************************
file with basedata            : mm20_.bas
initial value random generator: 101542097
************************************************************************
projects                      :  1
jobs (incl. supersource/sink ):  12
horizon                       :  85
RESOURCES
  - renewable                 :  2   R
  - nonrenewable              :  2   N
  - doubly constrained        :  0   D
************************************************************************
PROJECT INFORMATION:
pronr.  #jobs rel.date duedate tardcost  MPM-Time
    1     10      0       20        9       20
************************************************************************
PRECEDENCE RELATIONS:
jobnr.    #modes  #successors   successors
   1        1          3           2   3   4
   2        3          3           7  10  11
   3        3          3           6   8  11
   4        3          2           5  11
   5        3          1           7
   6        3          1           9
   7        3          1           8
   8        3          1           9
   9        3          1          12
  10        3          1          12
  11        3          1          12
  12        1          0        
************************************************************************
REQUESTS/DURATIONS:
jobnr. mode duration  R 1  R 2  N 1  N 2
------------------------------------------------------------------------
  1      1     0       0    0    0    0
  2      1     6       8    0    0    7
         2     8       8    0    5    0
         3    10       7    0    0    1
  3      1     7       5    0    7    0
         2     7       9    0    0    8
         3     8       0    3    0    8
  4      1     5       7    0    0    4
         2     9       7    0    7    0
         3    10       7    0    6    0
  5      1     4       0    6    0    8
         2     4       0    5    6    0
         3    10       8    0    0    8
  6      1     1       0    8    4    0
         2     5       5    0    0    3
         3     8       0    6    4    0
  7      1     1       0    4    0    8
         2     4       0    4    0    1
         3     7       6    0    1    0
  8      1     3       0    8    0    2
         2     3       0    7    6    0
         3     4       4    0    5    0
  9      1     7       0    9    5    0
         2     9       4    0    2    0
         3    10       0    9    0    8
 10      1     5       0    8    5    0
         2     5       0    9    0    9
         3     8       0    5    4    0
 11      1     3       7    0    0    9
         2     4       4    0    6    0
         3    10       0    3    3    0
 12      1     0       0    0    0    0
************************************************************************
RESOURCEAVAILABILITIES:
  R 1  R 2  N 1  N 2
   20   20   52   66
************************************************************************
MAXIMAL LAGS:
from  to  type  delay
    1   12   ES      0
    1    2   ES      0
    2   12   ES      0
    1    3   ES      0
    3   12   ES      0
    1    4   ES      0
    4   12   ES      0
    1    5   ES      0
    5   12   ES      0
    1    6   ES      0
    6   12   ES      0
    1    7   ES      0
    7   12   ES      0
    1    8   ES      0
    8   12   ES      0
    1    9   ES      0
    9   12   ES      0
    1   10   ES      0
   10   12   ES      0
    1   11   ES      0
   11   12   ES      0
    1   12   ES      0
    2    7   SS    -12
    2    7   SE     -8
    2    7   ES      6
    2    7   EE     10
    2   10   SS     -8
    2   10   SE     12
    2   10   ES     -9
    2   10   EE      4
    2   11   SS     -1
    2   11   SE    -10
    2   11   ES     -1
    2   11   EE     10
    3    6   SS      9
    3    6   SE      0
    3    6   ES      6
    3    6   EE     -9
    3    8   SS     -2
    3    8   SE     -3
    3    8   ES     -2
    3    8   EE     -8
    3   11   SS     -7
    3   11   SE     11
    3   11   ES      1
    3   11   EE      8
    4    5   SS      3
    4    5   SE      8
    4    5   ES     -2
    4    5   EE     -7
    4   11   SS     10
    4   11   SE      5
    4   11   ES     10
    4   11   EE      7
    5    7   SS     -1
    5    7   SE     -5
    5    7   ES      9
    5    7   EE      6
    6    9   SS     -7
    6    9   SE      0
    6    9   ES     -3
    6    9   EE     11
    7    8   SS     10
    7    8   SE     -3
    7    8   ES     -8
    7    8   EE     -7
    8    9   SS     11
    8    9   SE    -12
    8    9   ES     10
    8    9   EE      6
************************************************************************
